(set-info :smt-lib-version 2.6)
(set-logic QF_LIA)
(set-info :category "random")
(set-info :status sat)
(declare-fun x0_minus () Int)
(declare-fun x0_plus () Int)
(declare-fun x10_minus () Int)
(declare-fun x10_plus () Int)
(declare-fun x11_minus () Int)
(declare-fun x11_plus () Int)
(declare-fun x12_minus () Int)
(declare-fun x12_plus () Int)
(declare-fun x13_minus () Int)
(declare-fun x13_plus () Int)
(declare-fun x14_minus () Int)
(declare-fun x14_plus () Int)
(declare-fun x15_minus () Int)
(declare-fun x15_plus () Int)
(declare-fun x16_minus () Int)
(declare-fun x16_plus () Int)
(declare-fun x17_minus () Int)
(declare-fun x17_plus () Int)
(declare-fun x18_minus () Int)
(declare-fun x18_plus () Int)
(declare-fun x19_minus () Int)
(declare-fun x19_plus () Int)
(declare-fun x1_minus () Int)
(declare-fun x1_plus () Int)
(declare-fun x20_minus () Int)
(declare-fun x20_plus () Int)
(declare-fun x21_minus () Int)
(declare-fun x21_plus () Int)
(declare-fun x22_minus () Int)
(declare-fun x22_plus () Int)
(declare-fun x23_minus () Int)
(declare-fun x23_plus () Int)
(declare-fun x24_minus () Int)
(declare-fun x24_plus () Int)
(declare-fun x25_minus () Int)
(declare-fun x25_plus () Int)
(declare-fun x26_minus () Int)
(declare-fun x26_plus () Int)
(declare-fun x27_minus () Int)
(declare-fun x27_plus () Int)
(declare-fun x28_minus () Int)
(declare-fun x28_plus () Int)
(declare-fun x29_minus () Int)
(declare-fun x29_plus () Int)
(declare-fun x2_minus () Int)
(declare-fun x2_plus () Int)
(declare-fun x30_minus () Int)
(declare-fun x30_plus () Int)
(declare-fun x31_minus () Int)
(declare-fun x31_plus () Int)
(declare-fun x32_minus () Int)
(declare-fun x32_plus () Int)
(declare-fun x33_minus () Int)
(declare-fun x33_plus () Int)
(declare-fun x34_minus () Int)
(declare-fun x34_plus () Int)
(declare-fun x3_minus () Int)
(declare-fun x3_plus () Int)
(declare-fun x4_minus () Int)
(declare-fun x4_plus () Int)
(declare-fun x5_minus () Int)
(declare-fun x5_plus () Int)
(declare-fun x6_minus () Int)
(declare-fun x6_plus () Int)
(declare-fun x7_minus () Int)
(declare-fun x7_plus () Int)
(declare-fun x8_minus () Int)
(declare-fun x8_plus () Int)
(declare-fun x9_minus () Int)
(declare-fun x9_plus () Int)
(assert (>= x0_minus 0))
(assert (>= x0_plus 0))
(assert (>= x10_minus 0))
(assert (>= x10_plus 0))
(assert (>= x11_minus 0))
(assert (>= x11_plus 0))
(assert (>= x12_minus 0))
(assert (>= x12_plus 0))
(assert (>= x13_minus 0))
(assert (>= x13_plus 0))
(assert (>= x14_minus 0))
(assert (>= x14_plus 0))
(assert (>= x15_minus 0))
(assert (>= x15_plus 0))
(assert (>= x16_minus 0))
(assert (>= x16_plus 0))
(assert (>= x17_minus 0))
(assert (>= x17_plus 0))
(assert (>= x18_minus 0))
(assert (>= x18_plus 0))
(assert (>= x19_minus 0))
(assert (>= x19_plus 0))
(assert (>= x1_minus 0))
(assert (>= x1_plus 0))
(assert (>= x20_minus 0))
(assert (>= x20_plus 0))
(assert (>= x21_minus 0))
(assert (>= x21_plus 0))
(assert (>= x22_minus 0))
(assert (>= x22_plus 0))
(assert (>= x23_minus 0))
(assert (>= x23_plus 0))
(assert (>= x24_minus 0))
(assert (>= x24_plus 0))
(assert (>= x25_minus 0))
(assert (>= x25_plus 0))
(assert (>= x26_minus 0))
(assert (>= x26_plus 0))
(assert (>= x27_minus 0))
(assert (>= x27_plus 0))
(assert (>= x28_minus 0))
(assert (>= x28_plus 0))
(assert (>= x29_minus 0))
(assert (>= x29_plus 0))
(assert (>= x2_minus 0))
(assert (>= x2_plus 0))
(assert (>= x30_minus 0))
(assert (>= x30_plus 0))
(assert (>= x31_minus 0))
(assert (>= x31_plus 0))
(assert (>= x32_minus 0))
(assert (>= x32_plus 0))
(assert (>= x33_minus 0))
(assert (>= x33_plus 0))
(assert (>= x34_minus 0))
(assert (>= x34_plus 0))
(assert (>= x3_minus 0))
(assert (>= x3_plus 0))
(assert (>= x4_minus 0))
(assert (>= x4_plus 0))
(assert (>= x5_minus 0))
(assert (>= x5_plus 0))
(assert (>= x6_minus 0))
(assert (>= x6_plus 0))
(assert (>= x7_minus 0))
(assert (>= x7_plus 0))
(assert (>= x8_minus 0))
(assert (>= x8_plus 0))
(assert (>= x9_minus 0))
(assert (>= x9_plus 0))
(assert (>= (+ (- x11_plus) x17_plus x19_plus x2_plus (* (- 2) x20_plus) (* 2 x22_plus) (- x24_plus) (- x27_plus) x29_plus (- x30_plus) (- x34_plus) x6_plus (- x8_plus) x11_minus (- x17_minus) (- x19_minus) (- x2_minus) (* 2 x20_minus) (* (- 2) x22_minus) x24_minus x27_minus (- x29_minus) x30_minus x34_minus (- x6_minus) x8_minus) 0))
(assert (>= (+ x10_plus x12_plus x16_plus x17_plus (- x18_plus) x22_plus (- x24_plus) (- x29_plus) x30_plus x31_plus x32_plus x34_plus (- x4_plus) x5_plus (- x10_minus) (- x12_minus) (- x16_minus) (- x17_minus) x18_minus (- x22_minus) x24_minus x29_minus (- x30_minus) (- x31_minus) (- x32_minus) (- x34_minus) x4_minus (- x5_minus)) 0))
(assert (>= (+ (- x10_plus) (- x11_plus) (- x12_plus) x15_plus (- x16_plus) x17_plus x22_plus x23_plus (- x26_plus) (- x27_plus) x29_plus (- x34_plus) x4_plus (- x5_plus) x6_plus x10_minus x11_minus x12_minus (- x15_minus) x16_minus (- x17_minus) (- x22_minus) (- x23_minus) x26_minus x27_minus (- x29_minus) x34_minus (- x4_minus) x5_minus (- x6_minus)) (- 1)))
(assert (>= (+ x1_plus (- x12_plus) x13_plus (- x15_plus) x17_plus x19_plus x20_plus (- x21_plus) x23_plus (* 2 x24_plus) x32_plus x33_plus (- x8_plus) (- x9_plus) (- x1_minus) x12_minus (- x13_minus) x15_minus (- x17_minus) (- x19_minus) (- x20_minus) x21_minus (- x23_minus) (* (- 2) x24_minus) (- x32_minus) (- x33_minus) x8_minus x9_minus) 0))
(assert (>= (+ (- x1_plus) (* 2 x11_plus) (- x13_plus) (- x14_plus) (- x16_plus) x17_plus x18_plus (- x23_plus) (- x24_plus) x28_plus x34_plus (- x4_plus) x1_minus (* (- 2) x11_minus) x13_minus x14_minus x16_minus (- x17_minus) (- x18_minus) x23_minus x24_minus (- x28_minus) (- x34_minus) x4_minus) 0))
(assert (>= (+ (- x11_plus) (- x16_plus) (* (- 2) x2_plus) x20_plus (* 2 x22_plus) x23_plus (- x3_plus) (* 2 x30_plus) (- x31_plus) x5_plus x7_plus x11_minus x16_minus (* 2 x2_minus) (- x20_minus) (* (- 2) x22_minus) (- x23_minus) x3_minus (* (- 2) x30_minus) x31_minus (- x5_minus) (- x7_minus)) (- 1)))
(assert (>= (+ (- x0_plus) x10_plus (- x11_plus) x12_plus (- x13_plus) (- x15_plus) (- x16_plus) (- x19_plus) x21_plus (- x26_plus) (- x3_plus) (- x30_plus) x33_plus x34_plus (* (- 2) x4_plus) x5_plus x0_minus (- x10_minus) x11_minus (- x12_minus) x13_minus x15_minus x16_minus x19_minus (- x21_minus) x26_minus x3_minus x30_minus (- x33_minus) (- x34_minus) (* 2 x4_minus) (- x5_minus)) 0))
(assert (>= (+ x0_plus (- x10_plus) x11_plus x12_plus (* 2 x14_plus) (- x20_plus) (* 2 x21_plus) (- x22_plus) x23_plus (- x27_plus) (* (- 2) x32_plus) (- x33_plus) x5_plus (- x0_minus) x10_minus (- x11_minus) (- x12_minus) (* (- 2) x14_minus) x20_minus (* (- 2) x21_minus) x22_minus (- x23_minus) x27_minus (* 2 x32_minus) x33_minus (- x5_minus)) (- 1)))
(assert (>= (+ x0_plus (- x1_plus) x10_plus x12_plus (- x14_plus) x16_plus x18_plus (- x30_plus) x34_plus x8_plus (- x0_minus) x1_minus (- x10_minus) (- x12_minus) x14_minus (- x16_minus) (- x18_minus) x30_minus (- x34_minus) (- x8_minus)) 1))
(assert (>= (+ x15_plus x16_plus x19_plus (* 3 x2_plus) (- x21_plus) (- x22_plus) (- x27_plus) x3_plus (- x30_plus) x7_plus (- x15_minus) (- x16_minus) (- x19_minus) (* (- 3) x2_minus) x21_minus x22_minus x27_minus (- x3_minus) x30_minus (- x7_minus)) 0))
(assert (>= (+ (- x11_plus) x25_plus (- x3_plus) x33_plus (- x4_plus) x6_plus (- x7_plus) x9_plus x11_minus (- x25_minus) x3_minus (- x33_minus) x4_minus (- x6_minus) x7_minus (- x9_minus)) 0))
(assert (>= (+ x12_plus (- x15_plus) (- x18_plus) x23_plus x24_plus x29_plus x31_plus (- x33_plus) (- x7_plus) (- x9_plus) (- x12_minus) x15_minus x18_minus (- x23_minus) (- x24_minus) (- x29_minus) (- x31_minus) x33_minus x7_minus x9_minus) 0))
(assert (>= (+ (- x1_plus) (- x10_plus) (- x11_plus) x12_plus x19_plus (- x21_plus) x26_plus (- x27_plus) (- x29_plus) (- x3_plus) x32_plus x34_plus x6_plus x1_minus x10_minus x11_minus (- x12_minus) (- x19_minus) x21_minus (- x26_minus) x27_minus x29_minus x3_minus (- x32_minus) (- x34_minus) (- x6_minus)) 1))
(assert (>= (+ (- x1_plus) (- x10_plus) x13_plus (- x14_plus) (- x18_plus) x2_plus x21_plus (- x22_plus) (- x25_plus) x27_plus (* (- 2) x31_plus) x32_plus (- x33_plus) (- x34_plus) (- x9_plus) x1_minus x10_minus (- x13_minus) x14_minus x18_minus (- x2_minus) (- x21_minus) x22_minus x25_minus (- x27_minus) (* 2 x31_minus) (- x32_minus) x33_minus x34_minus x9_minus) 0))
(assert (>= (+ x0_plus (- x1_plus) (- x11_plus) x12_plus (- x13_plus) (- x14_plus) (* (- 2) x20_plus) (- x24_plus) x25_plus (- x30_plus) (- x4_plus) (- x5_plus) (- x7_plus) (- x0_minus) x1_minus x11_minus (- x12_minus) x13_minus x14_minus (* 2 x20_minus) x24_minus (- x25_minus) x30_minus x4_minus x5_minus x7_minus) 1))
(assert (>= (+ (- x1_plus) (- x12_plus) (- x15_plus) x16_plus x23_plus (* (- 2) x25_plus) (- x28_plus) x29_plus x34_plus (- x6_plus) (- x8_plus) (- x9_plus) x1_minus x12_minus x15_minus (- x16_minus) (- x23_minus) (* 2 x25_minus) x28_minus (- x29_minus) (- x34_minus) x6_minus x8_minus x9_minus) (- 1)))
(assert (>= (+ x11_plus (- x12_plus) (- x14_plus) (- x2_plus) x21_plus x22_plus (- x23_plus) (- x25_plus) (- x28_plus) x3_plus x30_plus x33_plus x4_plus (- x6_plus) (- x11_minus) x12_minus x14_minus x2_minus (- x21_minus) (- x22_minus) x23_minus x25_minus x28_minus (- x3_minus) (- x30_minus) (- x33_minus) (- x4_minus) x6_minus) 1))
(assert (>= (+ x13_plus (- x18_plus) x20_plus (- x21_plus) (- x23_plus) (- x26_plus) x28_plus (* 2 x29_plus) (- x5_plus) (- x7_plus) (- x13_minus) x18_minus (- x20_minus) x21_minus x23_minus x26_minus (- x28_minus) (* (- 2) x29_minus) x5_minus x7_minus) 1))
(assert (>= (+ (- x18_plus) (* 2 x21_plus) x26_plus x30_plus x31_plus (* 2 x32_plus) (* 2 x33_plus) (- x6_plus) (* 2 x9_plus) x18_minus (* (- 2) x21_minus) (- x26_minus) (- x30_minus) (- x31_minus) (* (- 2) x32_minus) (* (- 2) x33_minus) x6_minus (* (- 2) x9_minus)) 0))
(assert (>= (+ x1_plus (- x13_plus) (- x14_plus) (- x16_plus) (- x19_plus) x22_plus (- x24_plus) x28_plus (- x29_plus) x3_plus (- x30_plus) (- x34_plus) x4_plus x9_plus (- x1_minus) x13_minus x14_minus x16_minus x19_minus (- x22_minus) x24_minus (- x28_minus) x29_minus (- x3_minus) x30_minus x34_minus (- x4_minus) (- x9_minus)) (- 1)))
(assert (>= (+ (- x15_plus) (- x16_plus) (- x25_plus) (- x29_plus) x30_plus x31_plus (* (- 2) x4_plus) (- x8_plus) x9_plus x15_minus x16_minus x25_minus x29_minus (- x30_minus) (- x31_minus) (* 2 x4_minus) x8_minus (- x9_minus)) 0))
(assert (>= (+ (- x0_plus) x12_plus (- x14_plus) (- x17_plus) x19_plus (- x20_plus) x22_plus (- x23_plus) x25_plus (* (- 2) x27_plus) (- x29_plus) x32_plus (- x34_plus) (- x4_plus) (- x6_plus) x7_plus (- x9_plus) x0_minus (- x12_minus) x14_minus x17_minus (- x19_minus) x20_minus (- x22_minus) x23_minus (- x25_minus) (* 2 x27_minus) x29_minus (- x32_minus) x34_minus x4_minus x6_minus (- x7_minus) x9_minus) (- 1)))
(assert (>= (+ x11_plus (- x14_plus) x16_plus (- x17_plus) (- x20_plus) x24_plus (- x26_plus) (- x28_plus) x3_plus (* 2 x32_plus) x34_plus (* (- 2) x8_plus) (* (- 3) x9_plus) (- x11_minus) x14_minus (- x16_minus) x17_minus x20_minus (- x24_minus) x26_minus x28_minus (- x3_minus) (* (- 2) x32_minus) (- x34_minus) (* 2 x8_minus) (* 3 x9_minus)) 0))
(assert (>= (+ x12_plus x13_plus (- x17_plus) (- x19_plus) (- x2_plus) x25_plus x26_plus x29_plus (- x31_plus) (- x32_plus) (- x34_plus) (- x5_plus) x8_plus x9_plus (- x12_minus) (- x13_minus) x17_minus x19_minus x2_minus (- x25_minus) (- x26_minus) (- x29_minus) x31_minus x32_minus x34_minus x5_minus (- x8_minus) (- x9_minus)) 0))
(assert (>= (+ (- x1_plus) (- x12_plus) x13_plus x15_plus x18_plus (- x19_plus) x21_plus (- x22_plus) x24_plus (- x27_plus) x31_plus x34_plus x5_plus (- x7_plus) x8_plus x1_minus x12_minus (- x13_minus) (- x15_minus) (- x18_minus) x19_minus (- x21_minus) x22_minus (- x24_minus) x27_minus (- x31_minus) (- x34_minus) (- x5_minus) x7_minus (- x8_minus)) 1))
(check-sat)
(exit)
